SKUs = {
  "FAN_MOTOR_2_167",
  "FAN_MOTOR_2_183",
  "FAN_MOTOR_2_209",
  "FAN_MOTOR_2_211",
  "FAN_MOTOR_2_213",
  "FAN_MOTOR_2_221",
  "FAN_MOTOR_2_234",
  "FAN_MOTOR_2_242",
  "FAN_MOTOR_2_253",
  "FAN_MOTOR_2_280",
  "FAN_MOTOR_2_284",
  "FAN_MOTOR_2_285",
  "FAN_MOTOR_2_287",
  "FAN_MOTOR_2_292",
  "FAN_MOTOR_2_296",
  "FAN_MOTOR_2_318",
  "FAN_MOTOR_2_328",
  "FAN_MOTOR_2_358",
  "FAN_MOTOR_2_359",
  "FAN_MOTOR_2_362",
  "FAN_MOTOR_2_383",
  "FAN_MOTOR_2_389",
  "FAN_MOTOR_2_401",
  "FAN_MOTOR_2_407",
  "FAN_MOTOR_2_408",
  "FAN_MOTOR_2_410",
  "FAN_MOTOR_2_424",
  "FAN_MOTOR_2_469",
  "FAN_MOTOR_2_485",
  "FAN_MOTOR_2_505",
  "LED_PANEL_1_022",
  "LED_PANEL_1_033",
  "LED_PANEL_1_037",
  "LED_PANEL_1_053",
  "LED_PANEL_1_084",
  "LED_PANEL_1_100",
  "LED_PANEL_1_108",
  "LED_PANEL_1_120",
  "LED_PANEL_1_122",
  "LED_PANEL_1_131",
  "LED_PANEL_1_135",
  "LED_PANEL_1_163",
  "LED_PANEL_1_165",
  "LED_PANEL_1_178",
  "LED_PANEL_1_223",
  "LED_PANEL_1_246",
  "LED_PANEL_1_257",
  "LED_PANEL_1_269",
  "LED_PANEL_1_272",
  "LED_PANEL_1_279",
  "LED_PANEL_1_280",
  "LED_PANEL_1_287",
  "LED_PANEL_1_288",
  "LED_PANEL_1_295",
  "LED_PANEL_1_297",
  "LED_PANEL_1_306",
  "LED_PANEL_1_315",
  "LED_PANEL_1_325",
  "LED_PANEL_1_337",
  "LED_PANEL_1_339",
  "LED_PANEL_1_343",
  "LED_PANEL_1_349",
  "LED_PANEL_1_362",
  "LED_PANEL_1_364",
  "LED_PANEL_1_369",
  "LED_PANEL_1_371",
  "LED_PANEL_1_373",
  "LED_PANEL_1_375",
  "LED_PANEL_1_389",
  "LED_PANEL_1_391",
  "LED_PANEL_1_409",
  "LED_PANEL_2_002",
  "LED_PANEL_2_003",
  "LED_PANEL_2_005",
  "LED_PANEL_2_008",
  "LED_PANEL_2_011",
  "LED_PANEL_2_015",
  "LED_PANEL_2_018",
  "LED_PANEL_2_020",
  "LED_PANEL_2_032",
  "LED_PANEL_2_034",
  "LED_PANEL_2_062",
  "LED_PANEL_2_065",
  "LED_PANEL_2_067",
  "LED_PANEL_2_076",
  "LED_PANEL_2_089",
  "LED_PANEL_2_100",
  "LED_PANEL_2_110",
  "LED_PANEL_2_114",
  "LED_PANEL_2_115",
  "LED_PANEL_2_116",
  "LED_PANEL_2_124",
  "LED_PANEL_2_125",
  "LED_PANEL_2_130",
  "LED_PANEL_2_143",
  "LED_PANEL_2_149"
};

Regions = {
  "CA",
  "TX",
  "WI"
};

unit_cost = #[
  "FAN_MOTOR_2_167": 2.8800,
  "FAN_MOTOR_2_183": 4.8000,
  "FAN_MOTOR_2_209": 8.3200,
  "FAN_MOTOR_2_211": 19.9900,
  "FAN_MOTOR_2_213": 0.9700,
  "FAN_MOTOR_2_221": 2.7700,
  "FAN_MOTOR_2_234": 5.8500,
  "FAN_MOTOR_2_242": 13.1100,
  "FAN_MOTOR_2_253": 5.8500,
  "FAN_MOTOR_2_280": 5.9700,
  "FAN_MOTOR_2_284": 6.1800,
  "FAN_MOTOR_2_285": 4.6700,
  "FAN_MOTOR_2_287": 1.9000,
  "FAN_MOTOR_2_292": 12.8700,
  "FAN_MOTOR_2_296": 4.6500,
  "FAN_MOTOR_2_318": 3.9700,
  "FAN_MOTOR_2_328": 7.1600,
  "FAN_MOTOR_2_358": 4.9700,
  "FAN_MOTOR_2_359": 9.4000,
  "FAN_MOTOR_2_362": 3.7200,
  "FAN_MOTOR_2_383": 3.9400,
  "FAN_MOTOR_2_389": 1.9700,
  "FAN_MOTOR_2_401": 3.3300,
  "FAN_MOTOR_2_407": 4.9400,
  "FAN_MOTOR_2_408": 7.2300,
  "FAN_MOTOR_2_410": 1.3800,
  "FAN_MOTOR_2_424": 2.8800,
  "FAN_MOTOR_2_469": 2.9700,
  "FAN_MOTOR_2_485": 6.9200,
  "FAN_MOTOR_2_505": 4.9700,
  "LED_PANEL_1_022": 7.1300,
  "LED_PANEL_1_033": 16.0600,
  "LED_PANEL_1_037": 12.9000,
  "LED_PANEL_1_053": 3.9700,
  "LED_PANEL_1_084": 4.2200,
  "LED_PANEL_1_100": 11.2000,
  "LED_PANEL_1_108": 12.8200,
  "LED_PANEL_1_120": 10.2900,
  "LED_PANEL_1_122": 1.6300,
  "LED_PANEL_1_131": 0.6900,
  "LED_PANEL_1_135": 18.4500,
  "LED_PANEL_1_163": 8.6400,
  "LED_PANEL_1_165": 4.9700,
  "LED_PANEL_1_178": 0.4800,
  "LED_PANEL_1_223": 1.0500,
  "LED_PANEL_1_246": 10.9800,
  "LED_PANEL_1_257": 16.7600,
  "LED_PANEL_1_269": 11.7300,
  "LED_PANEL_1_272": 8.4400,
  "LED_PANEL_1_279": 3.8700,
  "LED_PANEL_1_280": 10.9300,
  "LED_PANEL_1_287": 5.6800,
  "LED_PANEL_1_288": 0.5600,
  "LED_PANEL_1_295": 0.4800,
  "LED_PANEL_1_297": 14.8800,
  "LED_PANEL_1_306": 13.9800,
  "LED_PANEL_1_315": 4.3600,
  "LED_PANEL_1_325": 6.4400,
  "LED_PANEL_1_337": 3.6700,
  "LED_PANEL_1_339": 7.9800,
  "LED_PANEL_1_343": 5.0200,
  "LED_PANEL_1_349": 11.1900,
  "LED_PANEL_1_362": 9.8500,
  "LED_PANEL_1_364": 12.4400,
  "LED_PANEL_1_369": 1.0000,
  "LED_PANEL_1_371": 0.4800,
  "LED_PANEL_1_373": 14.7200,
  "LED_PANEL_1_375": 9.8800,
  "LED_PANEL_1_389": 11.9700,
  "LED_PANEL_1_391": 3.8600,
  "LED_PANEL_1_409": 5.7000,
  "LED_PANEL_2_002": 1.8200,
  "LED_PANEL_2_003": 1.9700,
  "LED_PANEL_2_005": 4.4700,
  "LED_PANEL_2_008": 3.7800,
  "LED_PANEL_2_011": 0.9700,
  "LED_PANEL_2_015": 2.6700,
  "LED_PANEL_2_018": 3.3700,
  "LED_PANEL_2_020": 3.7900,
  "LED_PANEL_2_032": 0.9800,
  "LED_PANEL_2_034": 2.7800,
  "LED_PANEL_2_062": 5.7400,
  "LED_PANEL_2_065": 0.5000,
  "LED_PANEL_2_067": 2.9700,
  "LED_PANEL_2_076": 2.7700,
  "LED_PANEL_2_089": 2.9700,
  "LED_PANEL_2_100": 0.8500,
  "LED_PANEL_2_110": 5.9700,
  "LED_PANEL_2_114": 2.0700,
  "LED_PANEL_2_115": 2.5000,
  "LED_PANEL_2_116": 2.9700,
  "LED_PANEL_2_124": 0.2300,
  "LED_PANEL_2_125": 0.9600,
  "LED_PANEL_2_130": 7.0000,
  "LED_PANEL_2_143": 1.0200,
  "LED_PANEL_2_149": 1.4300,
]#;

original_holding_cost = #[
  "FAN_MOTOR_2_167": 273.6400,
  "FAN_MOTOR_2_183": 391.3300,
  "FAN_MOTOR_2_209": 429.0600,
  "FAN_MOTOR_2_211": 261.9100,
  "FAN_MOTOR_2_213": 265.7700,
  "FAN_MOTOR_2_221": 322.6600,
  "FAN_MOTOR_2_234": 401.4000,
  "FAN_MOTOR_2_242": 388.1400,
  "FAN_MOTOR_2_253": 209.8100,
  "FAN_MOTOR_2_280": 287.3600,
  "FAN_MOTOR_2_284": 710.7900,
  "FAN_MOTOR_2_285": 336.7900,
  "FAN_MOTOR_2_287": 171.3100,
  "FAN_MOTOR_2_292": 252.4700,
  "FAN_MOTOR_2_296": 360.4400,
  "FAN_MOTOR_2_318": 189.1300,
  "FAN_MOTOR_2_328": 379.0500,
  "FAN_MOTOR_2_358": 164.3900,
  "FAN_MOTOR_2_359": 374.8800,
  "FAN_MOTOR_2_362": 247.4000,
  "FAN_MOTOR_2_383": 438.9100,
  "FAN_MOTOR_2_389": 457.0400,
  "FAN_MOTOR_2_401": 236.3000,
  "FAN_MOTOR_2_407": 244.7800,
  "FAN_MOTOR_2_408": 522.6200,
  "FAN_MOTOR_2_410": 216.0100,
  "FAN_MOTOR_2_424": 280.2400,
  "FAN_MOTOR_2_469": 312.0200,
  "FAN_MOTOR_2_485": 652.3300,
  "FAN_MOTOR_2_505": 491.7100,
  "LED_PANEL_1_022": 565.8800,
  "LED_PANEL_1_033": 585.5500,
  "LED_PANEL_1_037": 910.6000,
  "LED_PANEL_1_053": 483.3600,
  "LED_PANEL_1_084": 381.6300,
  "LED_PANEL_1_100": 1042.2700,
  "LED_PANEL_1_108": 955.0100,
  "LED_PANEL_1_120": 442.3400,
  "LED_PANEL_1_122": 241.6900,
  "LED_PANEL_1_131": 311.1500,
  "LED_PANEL_1_135": 675.5200,
  "LED_PANEL_1_163": 380.3000,
  "LED_PANEL_1_165": 405.4800,
  "LED_PANEL_1_178": 333.9200,
  "LED_PANEL_1_223": 184.6700,
  "LED_PANEL_1_246": 567.6800,
  "LED_PANEL_1_257": 659.9100,
  "LED_PANEL_1_269": 588.1800,
  "LED_PANEL_1_272": 214.8800,
  "LED_PANEL_1_279": 326.7600,
  "LED_PANEL_1_280": 714.4300,
  "LED_PANEL_1_287": 576.0500,
  "LED_PANEL_1_288": 313.0400,
  "LED_PANEL_1_295": 320.9200,
  "LED_PANEL_1_297": 701.7300,
  "LED_PANEL_1_306": 810.7800,
  "LED_PANEL_1_315": 321.1900,
  "LED_PANEL_1_325": 201.8800,
  "LED_PANEL_1_337": 500.2400,
  "LED_PANEL_1_339": 699.3000,
  "LED_PANEL_1_343": 492.5600,
  "LED_PANEL_1_349": 896.7500,
  "LED_PANEL_1_362": 713.9500,
  "LED_PANEL_1_364": 857.1500,
  "LED_PANEL_1_369": 260.6800,
  "LED_PANEL_1_371": 281.1400,
  "LED_PANEL_1_373": 965.6300,
  "LED_PANEL_1_375": 227.5200,
  "LED_PANEL_1_389": 505.3900,
  "LED_PANEL_1_391": 359.7100,
  "LED_PANEL_1_409": 562.1500,
  "LED_PANEL_2_002": 221.7700,
  "LED_PANEL_2_003": 157.5000,
  "LED_PANEL_2_005": 147.7600,
  "LED_PANEL_2_008": 183.4600,
  "LED_PANEL_2_011": 130.1700,
  "LED_PANEL_2_015": 188.0900,
  "LED_PANEL_2_018": 253.9500,
  "LED_PANEL_2_020": 213.5200,
  "LED_PANEL_2_032": 140.2600,
  "LED_PANEL_2_034": 181.8100,
  "LED_PANEL_2_062": 244.2500,
  "LED_PANEL_2_065": 86.6000,
  "LED_PANEL_2_067": 219.1000,
  "LED_PANEL_2_076": 320.5400,
  "LED_PANEL_2_089": 395.1600,
  "LED_PANEL_2_100": 196.1500,
  "LED_PANEL_2_110": 152.5700,
  "LED_PANEL_2_114": 174.9000,
  "LED_PANEL_2_115": 304.8300,
  "LED_PANEL_2_116": 232.3000,
  "LED_PANEL_2_124": 83.1700,
  "LED_PANEL_2_125": 104.6900,
  "LED_PANEL_2_130": 397.8700,
  "LED_PANEL_2_143": 102.5500,
  "LED_PANEL_2_149": 153.8100,
]#;

original_ordering_cost = #[
  "FAN_MOTOR_2_167": 89.6500,
  "FAN_MOTOR_2_183": 123.8600,
  "FAN_MOTOR_2_209": 106.2400,
  "FAN_MOTOR_2_211": 65.1100,
  "FAN_MOTOR_2_213": 136.7800,
  "FAN_MOTOR_2_221": 80.2100,
  "FAN_MOTOR_2_234": 99.6400,
  "FAN_MOTOR_2_242": 96.3500,
  "FAN_MOTOR_2_253": 52.2600,
  "FAN_MOTOR_2_280": 71.4800,
  "FAN_MOTOR_2_284": 270.0600,
  "FAN_MOTOR_2_285": 83.7100,
  "FAN_MOTOR_2_287": 47.8800,
  "FAN_MOTOR_2_292": 62.7600,
  "FAN_MOTOR_2_296": 91.4600,
  "FAN_MOTOR_2_318": 47.1300,
  "FAN_MOTOR_2_328": 94.0200,
  "FAN_MOTOR_2_358": 40.9800,
  "FAN_MOTOR_2_359": 93.0300,
  "FAN_MOTOR_2_362": 61.5700,
  "FAN_MOTOR_2_383": 145.9300,
  "FAN_MOTOR_2_389": 239.2100,
  "FAN_MOTOR_2_401": 66.4400,
  "FAN_MOTOR_2_407": 60.8900,
  "FAN_MOTOR_2_408": 147.2500,
  "FAN_MOTOR_2_410": 77.6900,
  "FAN_MOTOR_2_424": 84.9200,
  "FAN_MOTOR_2_469": 91.8800,
  "FAN_MOTOR_2_485": 198.5000,
  "FAN_MOTOR_2_505": 185.5100,
  "LED_PANEL_1_022": 190.4500,
  "LED_PANEL_1_033": 144.6100,
  "LED_PANEL_1_037": 436.8900,
  "LED_PANEL_1_053": 119.7400,
  "LED_PANEL_1_084": 133.9300,
  "LED_PANEL_1_100": 353.6900,
  "LED_PANEL_1_108": 425.9800,
  "LED_PANEL_1_120": 109.3500,
  "LED_PANEL_1_122": 60.1300,
  "LED_PANEL_1_131": 107.2200,
  "LED_PANEL_1_135": 166.5400,
  "LED_PANEL_1_163": 94.3200,
  "LED_PANEL_1_165": 117.1200,
  "LED_PANEL_1_178": 125.4000,
  "LED_PANEL_1_223": 45.9500,
  "LED_PANEL_1_246": 139.9100,
  "LED_PANEL_1_257": 162.5600,
  "LED_PANEL_1_269": 152.6000,
  "LED_PANEL_1_272": 53.4600,
  "LED_PANEL_1_279": 111.6800,
  "LED_PANEL_1_280": 235.4400,
  "LED_PANEL_1_287": 241.4900,
  "LED_PANEL_1_288": 122.7000,
  "LED_PANEL_1_295": 141.2400,
  "LED_PANEL_1_297": 193.8600,
  "LED_PANEL_1_306": 296.2400,
  "LED_PANEL_1_315": 79.5800,
  "LED_PANEL_1_325": 50.2700,
  "LED_PANEL_1_337": 195.7900,
  "LED_PANEL_1_339": 268.9800,
  "LED_PANEL_1_343": 172.3900,
  "LED_PANEL_1_349": 307.0600,
  "LED_PANEL_1_362": 176.0300,
  "LED_PANEL_1_364": 361.2900,
  "LED_PANEL_1_369": 75.9000,
  "LED_PANEL_1_371": 113.6200,
  "LED_PANEL_1_373": 421.6100,
  "LED_PANEL_1_375": 56.5700,
  "LED_PANEL_1_389": 125.0500,
  "LED_PANEL_1_391": 104.8400,
  "LED_PANEL_1_409": 197.8800,
  "LED_PANEL_2_002": 65.1400,
  "LED_PANEL_2_003": 39.2600,
  "LED_PANEL_2_005": 36.8000,
  "LED_PANEL_2_008": 45.6800,
  "LED_PANEL_2_011": 32.4400,
  "LED_PANEL_2_015": 46.8200,
  "LED_PANEL_2_018": 64.0900,
  "LED_PANEL_2_020": 53.1400,
  "LED_PANEL_2_032": 34.9700,
  "LED_PANEL_2_034": 45.2800,
  "LED_PANEL_2_062": 60.6800,
  "LED_PANEL_2_065": 21.6100,
  "LED_PANEL_2_067": 59.6500,
  "LED_PANEL_2_076": 79.6300,
  "LED_PANEL_2_089": 128.0300,
  "LED_PANEL_2_100": 48.9400,
  "LED_PANEL_2_110": 38.0300,
  "LED_PANEL_2_114": 43.5600,
  "LED_PANEL_2_115": 83.6700,
  "LED_PANEL_2_116": 57.7800,
  "LED_PANEL_2_124": 20.7500,
  "LED_PANEL_2_125": 26.1100,
  "LED_PANEL_2_130": 98.4500,
  "LED_PANEL_2_143": 25.5800,
  "LED_PANEL_2_149": 38.3000,
]#;

original_stockout_cost = #[
  "FAN_MOTOR_2_167": 178.4200,
  "FAN_MOTOR_2_183": 126.8400,
  "FAN_MOTOR_2_209": 99.0700,
  "FAN_MOTOR_2_211": 96.1900,
  "FAN_MOTOR_2_213": 58.5400,
  "FAN_MOTOR_2_221": 202.4300,
  "FAN_MOTOR_2_234": 109.6000,
  "FAN_MOTOR_2_242": 99.6200,
  "FAN_MOTOR_2_253": 78.4500,
  "FAN_MOTOR_2_280": 141.7100,
  "FAN_MOTOR_2_284": 185.4000,
  "FAN_MOTOR_2_285": 80.4700,
  "FAN_MOTOR_2_287": 46.5600,
  "FAN_MOTOR_2_292": 86.2500,
  "FAN_MOTOR_2_296": 89.0800,
  "FAN_MOTOR_2_318": 63.6700,
  "FAN_MOTOR_2_328": 83.4800,
  "FAN_MOTOR_2_358": 48.7000,
  "FAN_MOTOR_2_359": 213.5400,
  "FAN_MOTOR_2_362": 100.5500,
  "FAN_MOTOR_2_383": 69.6100,
  "FAN_MOTOR_2_389": 191.8900,
  "FAN_MOTOR_2_401": 144.4400,
  "FAN_MOTOR_2_407": 88.2300,
  "FAN_MOTOR_2_408": 76.8900,
  "FAN_MOTOR_2_410": 42.1800,
  "FAN_MOTOR_2_424": 58.5400,
  "FAN_MOTOR_2_469": 168.0400,
  "FAN_MOTOR_2_485": 123.3900,
  "FAN_MOTOR_2_505": 84.5100,
  "LED_PANEL_1_022": 72.2800,
  "LED_PANEL_1_033": 195.0500,
  "LED_PANEL_1_037": 242.4000,
  "LED_PANEL_1_053": 148.1100,
  "LED_PANEL_1_084": 105.0100,
  "LED_PANEL_1_100": 270.4700,
  "LED_PANEL_1_108": 216.9900,
  "LED_PANEL_1_120": 91.7100,
  "LED_PANEL_1_122": 87.1600,
  "LED_PANEL_1_131": 79.7000,
  "LED_PANEL_1_135": 261.2300,
  "LED_PANEL_1_163": 82.9800,
  "LED_PANEL_1_165": 120.5300,
  "LED_PANEL_1_178": 96.9900,
  "LED_PANEL_1_223": 40.8900,
  "LED_PANEL_1_246": 150.9800,
  "LED_PANEL_1_257": 81.8700,
  "LED_PANEL_1_269": 204.3100,
  "LED_PANEL_1_272": 61.1900,
  "LED_PANEL_1_279": 191.5800,
  "LED_PANEL_1_280": 137.6600,
  "LED_PANEL_1_287": 99.5600,
  "LED_PANEL_1_288": 95.6600,
  "LED_PANEL_1_295": 96.4000,
  "LED_PANEL_1_297": 125.9600,
  "LED_PANEL_1_306": 200.5800,
  "LED_PANEL_1_315": 44.4900,
  "LED_PANEL_1_325": 64.4000,
  "LED_PANEL_1_337": 64.5700,
  "LED_PANEL_1_339": 148.3100,
  "LED_PANEL_1_343": 49.5600,
  "LED_PANEL_1_349": 223.1800,
  "LED_PANEL_1_362": 309.2900,
  "LED_PANEL_1_364": 227.7000,
  "LED_PANEL_1_369": 94.8600,
  "LED_PANEL_1_371": 58.6500,
  "LED_PANEL_1_373": 197.0600,
  "LED_PANEL_1_375": 63.8800,
  "LED_PANEL_1_389": 149.3100,
  "LED_PANEL_1_391": 84.2300,
  "LED_PANEL_1_409": 90.5400,
  "LED_PANEL_2_002": 82.8900,
  "LED_PANEL_2_003": 39.1100,
  "LED_PANEL_2_005": 26.7400,
  "LED_PANEL_2_008": 47.7000,
  "LED_PANEL_2_011": 20.5800,
  "LED_PANEL_2_015": 46.4300,
  "LED_PANEL_2_018": 88.0700,
  "LED_PANEL_2_020": 66.9800,
  "LED_PANEL_2_032": 32.4100,
  "LED_PANEL_2_034": 49.4900,
  "LED_PANEL_2_062": 70.6600,
  "LED_PANEL_2_065": 10.0800,
  "LED_PANEL_2_067": 60.6800,
  "LED_PANEL_2_076": 63.5000,
  "LED_PANEL_2_089": 114.9700,
  "LED_PANEL_2_100": 58.8500,
  "LED_PANEL_2_110": 37.6300,
  "LED_PANEL_2_114": 43.5100,
  "LED_PANEL_2_115": 55.3600,
  "LED_PANEL_2_116": 74.9700,
  "LED_PANEL_2_124": 9.1000,
  "LED_PANEL_2_125": 14.8800,
  "LED_PANEL_2_130": 73.1600,
  "LED_PANEL_2_143": 15.6000,
  "LED_PANEL_2_149": 27.9700,
]#;

original_avg_inventory = #[
  "FAN_MOTOR_2_167": 527.8500,
  "FAN_MOTOR_2_183": 370.9400,
  "FAN_MOTOR_2_209": 206.1900,
  "FAN_MOTOR_2_211": 52.4000,
  "FAN_MOTOR_2_213": 1525.6200,
  "FAN_MOTOR_2_221": 529.4700,
  "FAN_MOTOR_2_234": 274.5900,
  "FAN_MOTOR_2_242": 118.4300,
  "FAN_MOTOR_2_253": 143.4200,
  "FAN_MOTOR_2_280": 192.5300,
  "FAN_MOTOR_2_284": 638.8800,
  "FAN_MOTOR_2_285": 288.4700,
  "FAN_MOTOR_2_287": 409.1100,
  "FAN_MOTOR_2_292": 78.4900,
  "FAN_MOTOR_2_296": 352.4000,
  "FAN_MOTOR_2_318": 190.5600,
  "FAN_MOTOR_2_328": 211.7900,
  "FAN_MOTOR_2_358": 132.3100,
  "FAN_MOTOR_2_359": 159.5800,
  "FAN_MOTOR_2_362": 266.0700,
  "FAN_MOTOR_2_383": 619.1200,
  "FAN_MOTOR_2_389": 1288.8900,
  "FAN_MOTOR_2_401": 394.2200,
  "FAN_MOTOR_2_407": 198.2000,
  "FAN_MOTOR_2_408": 328.6500,
  "FAN_MOTOR_2_410": 869.6000,
  "FAN_MOTOR_2_424": 442.2900,
  "FAN_MOTOR_2_469": 477.5400,
  "FAN_MOTOR_2_485": 428.4400,
  "FAN_MOTOR_2_505": 549.6500,
  "LED_PANEL_1_022": 360.6100,
  "LED_PANEL_1_033": 145.8700,
  "LED_PANEL_1_037": 392.0400,
  "LED_PANEL_1_053": 487.0100,
  "LED_PANEL_1_084": 410.7600,
  "LED_PANEL_1_100": 423.1700,
  "LED_PANEL_1_108": 413.8200,
  "LED_PANEL_1_120": 171.9600,
  "LED_PANEL_1_122": 593.1100,
  "LED_PANEL_1_131": 2502.2400,
  "LED_PANEL_1_135": 146.4600,
  "LED_PANEL_1_163": 176.0700,
  "LED_PANEL_1_165": 370.8500,
  "LED_PANEL_1_178": 3898.0800,
  "LED_PANEL_1_223": 705.8600,
  "LED_PANEL_1_246": 206.8100,
  "LED_PANEL_1_257": 157.5000,
  "LED_PANEL_1_269": 227.9200,
  "LED_PANEL_1_272": 101.8400,
  "LED_PANEL_1_279": 384.1200,
  "LED_PANEL_1_280": 297.2400,
  "LED_PANEL_1_287": 563.4000,
  "LED_PANEL_1_288": 3079.7400,
  "LED_PANEL_1_295": 3743.2700,
  "LED_PANEL_1_297": 214.3500,
  "LED_PANEL_1_306": 322.2000,
  "LED_PANEL_1_315": 294.5800,
  "LED_PANEL_1_325": 125.3900,
  "LED_PANEL_1_337": 757.2500,
  "LED_PANEL_1_339": 486.8400,
  "LED_PANEL_1_343": 446.0600,
  "LED_PANEL_1_349": 445.0900,
  "LED_PANEL_1_362": 289.8400,
  "LED_PANEL_1_364": 382.7400,
  "LED_PANEL_1_369": 1187.3800,
  "LED_PANEL_1_371": 3284.0200,
  "LED_PANEL_1_373": 364.4400,
  "LED_PANEL_1_375": 92.1200,
  "LED_PANEL_1_389": 168.8900,
  "LED_PANEL_1_391": 424.0200,
  "LED_PANEL_1_409": 548.0200,
  "LED_PANEL_2_002": 553.4700,
  "LED_PANEL_2_003": 319.8000,
  "LED_PANEL_2_005": 132.2200,
  "LED_PANEL_2_008": 193.9500,
  "LED_PANEL_2_011": 536.7600,
  "LED_PANEL_2_015": 281.4000,
  "LED_PANEL_2_018": 342.5200,
  "LED_PANEL_2_020": 225.5300,
  "LED_PANEL_2_032": 571.0300,
  "LED_PANEL_2_034": 262.0000,
  "LED_PANEL_2_062": 170.2500,
  "LED_PANEL_2_065": 692.8200,
  "LED_PANEL_2_067": 335.3200,
  "LED_PANEL_2_076": 462.7400,
  "LED_PANEL_2_089": 604.7800,
  "LED_PANEL_2_100": 927.5800,
  "LED_PANEL_2_110": 102.2200,
  "LED_PANEL_2_114": 338.6200,
  "LED_PANEL_2_115": 554.8100,
  "LED_PANEL_2_116": 312.8600,
  "LED_PANEL_2_124": 1446.3700,
  "LED_PANEL_2_125": 435.1400,
  "LED_PANEL_2_130": 227.5000,
  "LED_PANEL_2_143": 403.5000,
  "LED_PANEL_2_149": 430.3100,
]#;

original_service_level = #[
  "FAN_MOTOR_2_167": 0.9000,
  "FAN_MOTOR_2_183": 0.9500,
  "FAN_MOTOR_2_209": 0.9500,
  "FAN_MOTOR_2_211": 0.9000,
  "FAN_MOTOR_2_213": 0.9500,
  "FAN_MOTOR_2_221": 0.9000,
  "FAN_MOTOR_2_234": 0.9500,
  "FAN_MOTOR_2_242": 0.9500,
  "FAN_MOTOR_2_253": 0.9000,
  "FAN_MOTOR_2_280": 0.9000,
  "FAN_MOTOR_2_284": 0.9800,
  "FAN_MOTOR_2_285": 0.9500,
  "FAN_MOTOR_2_287": 0.9000,
  "FAN_MOTOR_2_292": 0.9000,
  "FAN_MOTOR_2_296": 0.9500,
  "FAN_MOTOR_2_318": 0.9000,
  "FAN_MOTOR_2_328": 0.9500,
  "FAN_MOTOR_2_358": 0.9000,
  "FAN_MOTOR_2_359": 0.9000,
  "FAN_MOTOR_2_362": 0.9000,
  "FAN_MOTOR_2_383": 0.9800,
  "FAN_MOTOR_2_389": 0.9500,
  "FAN_MOTOR_2_401": 0.9000,
  "FAN_MOTOR_2_407": 0.9000,
  "FAN_MOTOR_2_408": 0.9800,
  "FAN_MOTOR_2_410": 0.9500,
  "FAN_MOTOR_2_424": 0.9500,
  "FAN_MOTOR_2_469": 0.9000,
  "FAN_MOTOR_2_485": 0.9800,
  "FAN_MOTOR_2_505": 0.9800,
  "LED_PANEL_1_022": 0.9800,
  "LED_PANEL_1_033": 0.9500,
  "LED_PANEL_1_037": 0.9800,
  "LED_PANEL_1_053": 0.9500,
  "LED_PANEL_1_084": 0.9500,
  "LED_PANEL_1_100": 0.9800,
  "LED_PANEL_1_108": 0.9800,
  "LED_PANEL_1_120": 0.9500,
  "LED_PANEL_1_122": 0.9000,
  "LED_PANEL_1_131": 0.9500,
  "LED_PANEL_1_135": 0.9500,
  "LED_PANEL_1_163": 0.9500,
  "LED_PANEL_1_165": 0.9500,
  "LED_PANEL_1_178": 0.9500,
  "LED_PANEL_1_223": 0.9000,
  "LED_PANEL_1_246": 0.9500,
  "LED_PANEL_1_257": 0.9800,
  "LED_PANEL_1_269": 0.9500,
  "LED_PANEL_1_272": 0.9000,
  "LED_PANEL_1_279": 0.9000,
  "LED_PANEL_1_280": 0.9800,
  "LED_PANEL_1_287": 0.9800,
  "LED_PANEL_1_288": 0.9500,
  "LED_PANEL_1_295": 0.9500,
  "LED_PANEL_1_297": 0.9800,
  "LED_PANEL_1_306": 0.9800,
  "LED_PANEL_1_315": 0.9500,
  "LED_PANEL_1_325": 0.9000,
  "LED_PANEL_1_337": 0.9800,
  "LED_PANEL_1_339": 0.9800,
  "LED_PANEL_1_343": 0.9800,
  "LED_PANEL_1_349": 0.9800,
  "LED_PANEL_1_362": 0.9500,
  "LED_PANEL_1_364": 0.9800,
  "LED_PANEL_1_369": 0.9000,
  "LED_PANEL_1_371": 0.9500,
  "LED_PANEL_1_373": 0.9800,
  "LED_PANEL_1_375": 0.9000,
  "LED_PANEL_1_389": 0.9500,
  "LED_PANEL_1_391": 0.9500,
  "LED_PANEL_1_409": 0.9800,
  "LED_PANEL_2_002": 0.9000,
  "LED_PANEL_2_003": 0.9000,
  "LED_PANEL_2_005": 0.9000,
  "LED_PANEL_2_008": 0.9000,
  "LED_PANEL_2_011": 0.9000,
  "LED_PANEL_2_015": 0.9000,
  "LED_PANEL_2_018": 0.9000,
  "LED_PANEL_2_020": 0.9000,
  "LED_PANEL_2_032": 0.9000,
  "LED_PANEL_2_034": 0.9000,
  "LED_PANEL_2_062": 0.9000,
  "LED_PANEL_2_065": 0.9000,
  "LED_PANEL_2_067": 0.9000,
  "LED_PANEL_2_076": 0.9500,
  "LED_PANEL_2_089": 0.9500,
  "LED_PANEL_2_100": 0.9000,
  "LED_PANEL_2_110": 0.9000,
  "LED_PANEL_2_114": 0.9000,
  "LED_PANEL_2_115": 0.9500,
  "LED_PANEL_2_116": 0.9000,
  "LED_PANEL_2_124": 0.9000,
  "LED_PANEL_2_125": 0.9000,
  "LED_PANEL_2_130": 0.9500,
  "LED_PANEL_2_143": 0.9000,
  "LED_PANEL_2_149": 0.9000,
]#;

ABC_Class = #[
  "FAN_MOTOR_2_167": "C",
  "FAN_MOTOR_2_183": "B",
  "FAN_MOTOR_2_209": "B",
  "FAN_MOTOR_2_211": "C",
  "FAN_MOTOR_2_213": "B",
  "FAN_MOTOR_2_221": "C",
  "FAN_MOTOR_2_234": "B",
  "FAN_MOTOR_2_242": "B",
  "FAN_MOTOR_2_253": "C",
  "FAN_MOTOR_2_280": "C",
  "FAN_MOTOR_2_284": "A",
  "FAN_MOTOR_2_285": "B",
  "FAN_MOTOR_2_287": "C",
  "FAN_MOTOR_2_292": "C",
  "FAN_MOTOR_2_296": "B",
  "FAN_MOTOR_2_318": "C",
  "FAN_MOTOR_2_328": "B",
  "FAN_MOTOR_2_358": "C",
  "FAN_MOTOR_2_359": "C",
  "FAN_MOTOR_2_362": "C",
  "FAN_MOTOR_2_383": "A",
  "FAN_MOTOR_2_389": "B",
  "FAN_MOTOR_2_401": "C",
  "FAN_MOTOR_2_407": "C",
  "FAN_MOTOR_2_408": "A",
  "FAN_MOTOR_2_410": "B",
  "FAN_MOTOR_2_424": "B",
  "FAN_MOTOR_2_469": "C",
  "FAN_MOTOR_2_485": "A",
  "FAN_MOTOR_2_505": "A",
  "LED_PANEL_1_022": "A",
  "LED_PANEL_1_033": "B",
  "LED_PANEL_1_037": "A",
  "LED_PANEL_1_053": "B",
  "LED_PANEL_1_084": "B",
  "LED_PANEL_1_100": "A",
  "LED_PANEL_1_108": "A",
  "LED_PANEL_1_120": "B",
  "LED_PANEL_1_122": "C",
  "LED_PANEL_1_131": "B",
  "LED_PANEL_1_135": "B",
  "LED_PANEL_1_163": "B",
  "LED_PANEL_1_165": "B",
  "LED_PANEL_1_178": "B",
  "LED_PANEL_1_223": "C",
  "LED_PANEL_1_246": "B",
  "LED_PANEL_1_257": "A",
  "LED_PANEL_1_269": "B",
  "LED_PANEL_1_272": "C",
  "LED_PANEL_1_279": "C",
  "LED_PANEL_1_280": "A",
  "LED_PANEL_1_287": "A",
  "LED_PANEL_1_288": "B",
  "LED_PANEL_1_295": "B",
  "LED_PANEL_1_297": "A",
  "LED_PANEL_1_306": "A",
  "LED_PANEL_1_315": "B",
  "LED_PANEL_1_325": "C",
  "LED_PANEL_1_337": "A",
  "LED_PANEL_1_339": "A",
  "LED_PANEL_1_343": "A",
  "LED_PANEL_1_349": "A",
  "LED_PANEL_1_362": "B",
  "LED_PANEL_1_364": "A",
  "LED_PANEL_1_369": "C",
  "LED_PANEL_1_371": "B",
  "LED_PANEL_1_373": "A",
  "LED_PANEL_1_375": "C",
  "LED_PANEL_1_389": "B",
  "LED_PANEL_1_391": "B",
  "LED_PANEL_1_409": "A",
  "LED_PANEL_2_002": "C",
  "LED_PANEL_2_003": "C",
  "LED_PANEL_2_005": "C",
  "LED_PANEL_2_008": "C",
  "LED_PANEL_2_011": "C",
  "LED_PANEL_2_015": "C",
  "LED_PANEL_2_018": "C",
  "LED_PANEL_2_020": "C",
  "LED_PANEL_2_032": "C",
  "LED_PANEL_2_034": "C",
  "LED_PANEL_2_062": "C",
  "LED_PANEL_2_065": "C",
  "LED_PANEL_2_067": "C",
  "LED_PANEL_2_076": "B",
  "LED_PANEL_2_089": "B",
  "LED_PANEL_2_100": "C",
  "LED_PANEL_2_110": "C",
  "LED_PANEL_2_114": "C",
  "LED_PANEL_2_115": "B",
  "LED_PANEL_2_116": "C",
  "LED_PANEL_2_124": "C",
  "LED_PANEL_2_125": "C",
  "LED_PANEL_2_130": "B",
  "LED_PANEL_2_143": "C",
  "LED_PANEL_2_149": "C",
]#;

sku_to_region = #[
  "FAN_MOTOR_2_167": "TX",
  "FAN_MOTOR_2_183": "TX",
  "FAN_MOTOR_2_209": "WI",
  "FAN_MOTOR_2_211": "WI",
  "FAN_MOTOR_2_213": "TX",
  "FAN_MOTOR_2_221": "TX",
  "FAN_MOTOR_2_234": "CA",
  "FAN_MOTOR_2_242": "TX",
  "FAN_MOTOR_2_253": "CA",
  "FAN_MOTOR_2_280": "TX",
  "FAN_MOTOR_2_284": "CA",
  "FAN_MOTOR_2_285": "CA",
  "FAN_MOTOR_2_287": "WI",
  "FAN_MOTOR_2_292": "WI",
  "FAN_MOTOR_2_296": "TX",
  "FAN_MOTOR_2_318": "CA",
  "FAN_MOTOR_2_328": "TX",
  "FAN_MOTOR_2_358": "CA",
  "FAN_MOTOR_2_359": "TX",
  "FAN_MOTOR_2_362": "CA",
  "FAN_MOTOR_2_383": "CA",
  "FAN_MOTOR_2_389": "CA",
  "FAN_MOTOR_2_401": "CA",
  "FAN_MOTOR_2_407": "TX",
  "FAN_MOTOR_2_408": "CA",
  "FAN_MOTOR_2_410": "TX",
  "FAN_MOTOR_2_424": "TX",
  "FAN_MOTOR_2_469": "TX",
  "FAN_MOTOR_2_485": "TX",
  "FAN_MOTOR_2_505": "CA",
  "LED_PANEL_1_022": "TX",
  "LED_PANEL_1_033": "TX",
  "LED_PANEL_1_037": "CA",
  "LED_PANEL_1_053": "TX",
  "LED_PANEL_1_084": "TX",
  "LED_PANEL_1_100": "CA",
  "LED_PANEL_1_108": "WI",
  "LED_PANEL_1_120": "WI",
  "LED_PANEL_1_122": "TX",
  "LED_PANEL_1_131": "TX",
  "LED_PANEL_1_135": "TX",
  "LED_PANEL_1_163": "TX",
  "LED_PANEL_1_165": "CA",
  "LED_PANEL_1_178": "CA",
  "LED_PANEL_1_223": "WI",
  "LED_PANEL_1_246": "WI",
  "LED_PANEL_1_257": "CA",
  "LED_PANEL_1_269": "TX",
  "LED_PANEL_1_272": "TX",
  "LED_PANEL_1_279": "CA",
  "LED_PANEL_1_280": "CA",
  "LED_PANEL_1_287": "CA",
  "LED_PANEL_1_288": "CA",
  "LED_PANEL_1_295": "CA",
  "LED_PANEL_1_297": "TX",
  "LED_PANEL_1_306": "CA",
  "LED_PANEL_1_315": "WI",
  "LED_PANEL_1_325": "CA",
  "LED_PANEL_1_337": "WI",
  "LED_PANEL_1_339": "CA",
  "LED_PANEL_1_343": "WI",
  "LED_PANEL_1_349": "TX",
  "LED_PANEL_1_362": "CA",
  "LED_PANEL_1_364": "CA",
  "LED_PANEL_1_369": "WI",
  "LED_PANEL_1_371": "WI",
  "LED_PANEL_1_373": "WI",
  "LED_PANEL_1_375": "WI",
  "LED_PANEL_1_389": "CA",
  "LED_PANEL_1_391": "TX",
  "LED_PANEL_1_409": "TX",
  "LED_PANEL_2_002": "TX",
  "LED_PANEL_2_003": "CA",
  "LED_PANEL_2_005": "WI",
  "LED_PANEL_2_008": "CA",
  "LED_PANEL_2_011": "WI",
  "LED_PANEL_2_015": "TX",
  "LED_PANEL_2_018": "WI",
  "LED_PANEL_2_020": "TX",
  "LED_PANEL_2_032": "TX",
  "LED_PANEL_2_034": "CA",
  "LED_PANEL_2_062": "WI",
  "LED_PANEL_2_065": "TX",
  "LED_PANEL_2_067": "WI",
  "LED_PANEL_2_076": "CA",
  "LED_PANEL_2_089": "CA",
  "LED_PANEL_2_100": "TX",
  "LED_PANEL_2_110": "CA",
  "LED_PANEL_2_114": "CA",
  "LED_PANEL_2_115": "WI",
  "LED_PANEL_2_116": "CA",
  "LED_PANEL_2_124": "WI",
  "LED_PANEL_2_125": "TX",
  "LED_PANEL_2_130": "WI",
  "LED_PANEL_2_143": "TX",
  "LED_PANEL_2_149": "WI",
]#;

regional_inventory_budget = #[
  "TX": 750000.00,
  "CA": 500000.00,
  "WI": 400000.00,
]#;

